15 1419 17 2 
13 1426 15 2 
13 1419 15 2 
13 1418 15 2 
13 1423 15 2 
13 1418 15 2 
13 1418 15 2 
13 1425 15 2 
13 1418 15 2 
13 1423 15 2 
13 1418 15 2 
13 1419 15 2 
13 1423 15 2 
13 1419 15 2 
13 1419 15 2 
13 1425 15 2 
13 1419 15 2 
13 1423 15 2 
13 1418 15 2 
13 1418 15 2 
13 1423 15 2 
13 1418 15 2 
13 1418 15 2 
13 1424 15 2 
13 1418 15 2 
13 1423 15 2 
13 1419 15 2 
13 1418 15 2 
13 1422 15 2 
13 1418 15 2 
13 1418 15 2 
13 1429 15 2 
13 1418 15 2 
13 1424 15 2 
13 1420 15 2 
13 1419 15 2 
13 1424 15 2 
13 1418 15 2 
13 1418 15 2 
13 1425 15 2 
13 1418 15 2 
13 1423 15 2 
13 1418 15 2 
13 1418 15 2 
13 1422 15 2 
13 1418 15 2 
13 1418 15 2 
13 1425 15 2 
13 1418 15 2 
13 1424 15 2 
13 1418 15 2 
13 1418 15 2 
13 1423 15 2 
13 1418 15 2 
13 1419 15 2 
13 1425 15 2 
13 1419 15 2 
13 1423 15 2 
13 1418 15 2 
13 1418 15 2 
13 1423 15 2 
13 1419 15 2 
13 1418 15 2 
13 1426 15 2 
13 1425 15 2 
13 1423 15 2 
13 1419 15 2 
13 1418 15 2 
13 1425 15 2 
13 1419 15 2 
13 1419 15 2 
13 1425 15 2 
13 1418 15 2 
13 1423 15 2 
13 1419 15 2 
13 1419 15 2 
13 1424 15 2 
13 1418 15 2 
13 1419 15 2 
13 1424 15 2 
13 1419 15 2 
13 1423 15 2 
13 1418 15 2 
13 1418 15 2 
13 1423 15 2 
13 1418 15 2 
13 1419 15 2 
13 1425 15 2 
13 1418 15 2 
13 1422 15 2 
